112 300 17 88 94 71 78 20 92 17 43 86 50 41 91 86 94 14 13 29 22 26 79 99 87 37 52 15 4 18 74 4 29 42 91 23 13 68 42 4 85 37 42 86 77 84 24 22 98 36 2 19 13 81 69 99 69 21 65 24 38 38 27 19 32 69 93 44 89 34 47 73 22 40 10 98 24 33 72 73 68 73 91 80 5 11 30 73 83 94 48 73 84 74 91 15 43 83 10 31 68 8 55 90 48 16 39 71 49 10 95 68 35 37 